
Gurobi 12.0.2 (win64) logging started Tue Jan  6 16:10:37 2026

Set parameter LogFile to value "C:\Ioana\_uni\honours\slp\algorithm\Main_files\results\arachidonic_acid_metabolism\Task_005_Sample002_irr_gurobi.log"
Gurobi Optimizer version 12.0.2 build v12.0.2rc0 (win64 - Windows 11.0 (26100.2))

CPU model: Intel(R) Core(TM) Ultra 5 125H, instruction set [SSE2|AVX|AVX2]
Thread count: 14 physical cores, 18 logical processors, using up to 18 threads

Non-default parameters:
TimeLimit  2200

Optimize a model with 47236 rows, 34505 columns and 146715 nonzeros
Model fingerprint: 0x7c9e7c63
Variable types: 17256 continuous, 17249 integer (17249 binary)
Coefficient statistics:
  Matrix range     [1e-04, 8e+04]
  Objective range  [1e-04, 9e-01]
  Bounds range     [1e+00, 1e+03]
  RHS range        [1e+00, 1e+00]
Presolve removed 30838 rows and 21552 columns
Presolve time: 0.34s
Presolved: 16398 rows, 12953 columns, 54573 nonzeros
Variable types: 6409 continuous, 6544 integer (6544 binary)
Found heuristic solution: objective 9.1880418

Root relaxation: objective 4.524597e-05, 41 iterations, 0.01 seconds (0.01 work units)

    Nodes    |    Current Node    |     Objective Bounds      |     Work
 Expl Unexpl |  Obj  Depth IntInf | Incumbent    BestBd   Gap | It/Node Time

     0     0    0.00005    0    3    9.18804    0.00005   100%     -    0s
H    0     0                       0.0452460    0.00005   100%     -    0s

Cutting planes:
  Cover: 3
  MIR: 2
  Flow cover: 6
  Flow path: 2
  Relax-and-lift: 4

Explored 1 nodes (41 simplex iterations) in 0.58 seconds (0.61 work units)
Thread count was 18 (of 18 available processors)

Solution count 2: 0.045246 9.18804 

Optimal solution found (tolerance 1.00e-04)
Best objective 4.524596857251e-02, best bound 4.524596857251e-02, gap 0.0000%
